
        $ From http://www.csplib.org/Problems/prob009/data/helmut.pdf
        $ Problem number 109
        $ Sequence length : 25
        language ESSENCE' 1.0
        letting sizemaster be 373
        letting sizes be sequence(3,6,7,8,15,17,22,23,31,32,35,41,43,60,62,68,79,87,104,105,114,120,121,138,148)
        